
Gurobi 12.0.0 (linux64) logging started Sun Dec  8 00:12:08 2024

Set parameter LogFile to value "log/st2.log"
Set parameter MIPFocus to value 1
Set parameter TimeLimit to value 30
Gurobi Optimizer version 12.0.0 build v12.0.0rc1 (linux64 - "Ubuntu 20.04.6 LTS")

CPU model: AMD Ryzen 7 5700U with Radeon Graphics, instruction set [SSE2|AVX|AVX2]
Thread count: 8 physical cores, 16 logical processors, using up to 16 threads

Non-default parameters:
TimeLimit  30
MIPFocus  1

Optimize a model with 5350 rows, 35650 columns and 7650 nonzeros
Model fingerprint: 0x1dfa1cf3
Model has 34650 simple general constraints
  4950 OR, 29700 INDICATOR
Variable types: 300 continuous, 35350 integer (35350 binary)
Coefficient statistics:
  Matrix range     [1e+00, 1e+02]
  Objective range  [8e+01, 2e+02]
  Bounds range     [1e+00, 3e+02]
  RHS range        [1e+00, 3e+02]
  GenCon coe range [1e+00, 1e+02]
Presolve added 29700 rows and 0 columns
Presolve removed 0 rows and 4962 columns
Presolve time: 1.25s
Presolved: 35050 rows, 30688 columns, 305391 nonzeros
Variable types: 300 continuous, 30388 integer (30388 binary)
Found heuristic solution: objective 14972.000000
Found heuristic solution: objective 14887.000000
Performing another presolve...
Presolve time: 0.49s
Deterministic concurrent LP optimizer: primal and dual simplex
Showing primal log only...

Concurrent spin time: 0.00s

Solved with dual simplex

Root relaxation: objective 0.000000e+00, 35849 iterations, 2.29 seconds (1.52 work units)
Total elapsed time = 5.16s (DegenMoves)

    Nodes    |    Current Node    |     Objective Bounds      |     Work
 Expl Unexpl |  Obj  Depth IntInf | Incumbent    BestBd   Gap | It/Node Time

     0     0    0.00000    0  696 14887.0000    0.00000   100%     -    5s
H    0     0                    14881.000000    0.00000   100%     -    5s
H    0     0                    12310.000000    0.00000   100%     -    5s
H    0     0                    10351.000000    0.00000   100%     -    5s
H    0     0                    10075.000000    0.00000   100%     -    5s
H    0     0                    9963.0000000    0.00000   100%     -    5s
H    0     0                    9953.0000000    0.00000   100%     -    6s
H    0     0                    9813.0000000    0.00000   100%     -    6s
     0     0    0.00000    0 2033 9813.00000    0.00000   100%     -    7s
H    0     0                    9643.0000000    0.00000   100%     -    7s
H    0     0                    9611.0000000    0.00000   100%     -    7s
H    0     0                    9570.0000000    0.00000   100%     -    7s
H    0     0                    9568.0000000    0.00000   100%     -    7s
H    0     0                    9462.0000000    0.00000   100%     -    7s
     0     0    0.00000    0 1759 9462.00000    0.00000   100%     -    7s
H    0     0                    9332.0000000    0.00000   100%     -   13s
H    0     0                    9201.0000000    0.00000   100%     -   13s
H    0     0                    9195.0000000    0.00000   100%     -   13s
H    0     0                    9087.0000000    0.00000   100%     -   13s
H    0     0                    9064.0000000    0.00000   100%     -   13s
H    0     0                    9044.0000000    0.00000   100%     -   13s
H    0     0                    8936.0000000    0.00000   100%     -   13s
H    0     0                    8905.0000000    0.00000   100%     -   13s
H    0     0                    8766.0000000    0.00000   100%     -   13s
H    0     0                    8735.0000000    0.00000   100%     -   13s
H    0     0                    8614.0000000    0.00000   100%     -   13s
H    0     0                    8603.0000000    0.00000   100%     -   13s
H    0     0                    8490.0000000    0.00000   100%     -   13s
H    0     0                    8363.0000000    0.00000   100%     -   13s
     0     0    0.00000    0  695 8363.00000    0.00000   100%     -   13s
     0     0    0.00000    0  666 8363.00000    0.00000   100%     -   14s
H    0     0                    8193.0000000    0.00000   100%     -   14s
H    0     0                    8074.0000000    0.00000   100%     -   16s
H    0     0                    8023.0000000    0.00000   100%     -   16s
     0     0    0.00000    0  734 8023.00000    0.00000   100%     -   16s
     0     0    0.00000    0  681 8023.00000    0.00000   100%     -   17s
     0     0    0.00000    0  727 8023.00000    0.00000   100%     -   19s
     0     0    0.00000    0  751 8023.00000    0.00000   100%     -   19s
     0     0    0.00000    0  670 8023.00000    0.00000   100%     -   21s
     0     2    0.00000    0  656 8023.00000    0.00000   100%     -   23s
    23    64    0.00000    5  670 8023.00000    0.00000   100%   270   25s
   142   607    0.00000   21  692 8023.00000    0.00000   100%  57.5   30s
H  201   607                    8017.0000000    0.00000   100%  44.7   30s

Cutting planes:
  Gomory: 2
  Implied bound: 2
  MIR: 36
  GUB cover: 7
  RLT: 2
  Relax-and-lift: 3

Explored 606 nodes (127034 simplex iterations) in 30.05 seconds (21.45 work units)
Thread count was 16 (of 16 available processors)

Solution count 10: 8017 8023 8074 ... 8766

Time limit reached
Best objective 8.017000000000e+03, best bound 0.000000000000e+00, gap 100.0000%

Gurobi 12.0.0 (linux64) logging started Sun Dec  8 00:18:05 2024

Set parameter LogFile to value "log/st2.log"
Set parameter MIPFocus to value 1
Set parameter TimeLimit to value 30
Gurobi Optimizer version 12.0.0 build v12.0.0rc1 (linux64 - "Ubuntu 20.04.6 LTS")

CPU model: AMD Ryzen 7 5700U with Radeon Graphics, instruction set [SSE2|AVX|AVX2]
Thread count: 8 physical cores, 16 logical processors, using up to 16 threads

Non-default parameters:
TimeLimit  30
MIPFocus  1

Optimize a model with 5350 rows, 35650 columns and 7650 nonzeros
Model fingerprint: 0x3253b6bd
Model has 34650 simple general constraints
  4950 OR, 29700 INDICATOR
Variable types: 300 continuous, 35350 integer (35350 binary)
Coefficient statistics:
  Matrix range     [1e+00, 1e+02]
  Objective range  [8e+01, 2e+02]
  Bounds range     [1e+00, 3e+02]
  RHS range        [1e+00, 3e+02]
  GenCon coe range [1e+00, 1e+02]
Presolve added 29700 rows and 0 columns
Presolve removed 0 rows and 4962 columns
Presolve time: 1.35s
Presolved: 35050 rows, 30688 columns, 305391 nonzeros
Variable types: 300 continuous, 30388 integer (30388 binary)
Found heuristic solution: objective 14878.000000
Found heuristic solution: objective 14793.000000
Performing another presolve...
Presolve time: 0.51s
Deterministic concurrent LP optimizer: primal and dual simplex
Showing primal log only...

Concurrent spin time: 0.21s

Solved with dual simplex

Root relaxation: objective 0.000000e+00, 35301 iterations, 2.19 seconds (1.39 work units)
Total elapsed time = 5.20s (DegenMoves)

    Nodes    |    Current Node    |     Objective Bounds      |     Work
 Expl Unexpl |  Obj  Depth IntInf | Incumbent    BestBd   Gap | It/Node Time

     0     0    0.00000    0  686 14793.0000    0.00000   100%     -    5s
H    0     0                    14787.000000    0.00000   100%     -    5s
H    0     0                    12207.000000    0.00000   100%     -    5s
H    0     0                    10203.000000    0.00000   100%     -    5s
H    0     0                    10076.000000    0.00000   100%     -    5s
H    0     0                    9608.0000000    0.00000   100%     -    6s
H    0     0                    9525.0000000    0.00000   100%     -    6s
H    0     0                    9319.0000000    0.00000   100%     -    6s
H    0     0                    9200.0000000    0.00000   100%     -    6s
     0     0    0.00000    0 1955 9200.00000    0.00000   100%     -    6s
H    0     0                    9066.0000000    0.00000   100%     -    7s
     0     0    0.00000    0 1586 9066.00000    0.00000   100%     -    7s
H    0     0                    8964.0000000    0.00000   100%     -   12s
H    0     0                    8879.0000000    0.00000   100%     -   12s
H    0     0                    8709.0000000    0.00000   100%     -   12s
H    0     0                    8539.0000000    0.00000   100%     -   12s
H    0     0                    8429.0000000    0.00000   100%     -   12s
     0     0    0.00000    0  695 8429.00000    0.00000   100%     -   12s
     0     0    0.00000    0  663 8429.00000    0.00000   100%     -   12s
H    0     0                    8289.0000000    0.00000   100%     -   15s
H    0     0                    8183.0000000    0.00000   100%     -   15s
H    0     0                    8168.0000000    0.00000   100%     -   15s
     0     0    0.00000    0  647 8168.00000    0.00000   100%     -   15s
     0     0    0.00000    0  638 8168.00000    0.00000   100%     -   15s
H    0     0                    7998.0000000    0.00000   100%     -   15s
     0     0    0.00000    0  779 7998.00000    0.00000   100%     -   18s
     0     0    0.00000    0  734 7998.00000    0.00000   100%     -   18s
     0     0    0.00000    0  766 7998.00000    0.00000   100%     -   20s
     0     2    0.00000    0  677 7998.00000    0.00000   100%     -   23s
    23    58    0.00000    5  903 7998.00000    0.00000   100%   445   26s
H  115   231                    7874.0000000    0.00000   100%   390   29s
   230   245    0.00000   40  934 7874.00000    0.00000   100%   249   30s

Cutting planes:
  Learned: 3
  Gomory: 3
  Implied bound: 15
  MIR: 188
  StrongCG: 1
  GUB cover: 77
  RLT: 4
  Relax-and-lift: 11

Explored 244 nodes (172726 simplex iterations) in 30.01 seconds (23.20 work units)
Thread count was 16 (of 16 available processors)

Solution count 10: 7874 7998 8168 ... 8964

Time limit reached
Best objective 7.874000000000e+03, best bound 0.000000000000e+00, gap 100.0000%

Gurobi 12.0.0 (linux64) logging started Sun Dec  8 01:14:41 2024

Set parameter LogFile to value "log/st2.log"
Set parameter MIPFocus to value 1
Set parameter TimeLimit to value 10
Gurobi Optimizer version 12.0.0 build v12.0.0rc1 (linux64 - "Ubuntu 20.04.6 LTS")

CPU model: AMD Ryzen 7 5700U with Radeon Graphics, instruction set [SSE2|AVX|AVX2]
Thread count: 8 physical cores, 16 logical processors, using up to 16 threads

Non-default parameters:
TimeLimit  10
MIPFocus  1

Optimize a model with 6210 rows, 41526 columns and 8694 nonzeros
Model fingerprint: 0x644639d8
Model has 40446 simple general constraints
  5778 OR, 34668 INDICATOR
Variable types: 324 continuous, 41202 integer (41202 binary)
Coefficient statistics:
  Matrix range     [1e+00, 1e+02]
  Objective range  [8e+01, 2e+02]
  Bounds range     [1e+00, 3e+02]
  RHS range        [1e+00, 3e+02]
  GenCon coe range [1e+00, 1e+02]
Presolve added 34668 rows and 0 columns
Presolve removed 0 rows and 5793 columns
Presolve time: 1.48s
Presolved: 40878 rows, 35733 columns, 355632 nonzeros
Variable types: 324 continuous, 35409 integer (35409 binary)
Found heuristic solution: objective 16289.000000
Found heuristic solution: objective 16204.000000
Performing another presolve...
Presolve time: 0.55s
Deterministic concurrent LP optimizer: primal and dual simplex
Showing primal log only...


Root simplex log...

Iteration    Objective       Primal Inf.    Dual Inf.      Time
   18350    2.2552658e+03   0.000000e+00   4.517733e+03      5s
Concurrent spin time: 0.00s

Solved with dual simplex

Root simplex log...

Iteration    Objective       Primal Inf.    Dual Inf.      Time
   41951    0.0000000e+00   0.000000e+00   0.000000e+00      5s

Root relaxation: objective 0.000000e+00, 41951 iterations, 3.08 seconds (1.95 work units)
Total elapsed time = 5.50s (DegenMoves)

    Nodes    |    Current Node    |     Objective Bounds      |     Work
 Expl Unexpl |  Obj  Depth IntInf | Incumbent    BestBd   Gap | It/Node Time

     0     0    0.00000    0  915 16204.0000    0.00000   100%     -    6s
H    0     0                    16198.000000    0.00000   100%     -    6s
H    0     0                    14424.000000    0.00000   100%     -    6s
H    0     0                    11554.000000    0.00000   100%     -    6s
H    0     0                    11336.000000    0.00000   100%     -    8s
H    0     0                    11021.000000    0.00000   100%     -    8s
H    0     0                    10991.000000    0.00000   100%     -    8s
H    0     0                    10880.000000    0.00000   100%     -    8s
H    0     0                    10776.000000    0.00000   100%     -    8s
H    0     0                    10620.000000    0.00000   100%     -    8s
H    0     0                    10510.000000    0.00000   100%     -    8s
     0     0    0.00000    0 2166 10510.0000    0.00000   100%     -    8s
     0     0    0.00000    0 1933 10510.0000    0.00000   100%     -    9s
H    0     0                    10340.000000    0.00000   100%     -   10s
H    0     0                    10313.000000    0.00000   100%     -   10s

Cutting planes:
  Learned: 5
  Gomory: 78
  Cover: 285
  Implied bound: 33
  MIR: 2291
  StrongCG: 4
  GUB cover: 519
  RLT: 26
  Relax-and-lift: 41

Explored 1 nodes (60140 simplex iterations) in 10.06 seconds (7.81 work units)
Thread count was 16 (of 16 available processors)

Solution count 10: 10313 10340 10510 ... 11554

Time limit reached
Best objective 1.031300000000e+04, best bound 0.000000000000e+00, gap 100.0000%

Gurobi 12.0.0 (linux64) logging started Sun Dec  8 01:16:51 2024

Set parameter LogFile to value "log/st2.log"
Set parameter MIPFocus to value 1
Set parameter TimeLimit to value 10
Gurobi Optimizer version 12.0.0 build v12.0.0rc1 (linux64 - "Ubuntu 20.04.6 LTS")

CPU model: AMD Ryzen 7 5700U with Radeon Graphics, instruction set [SSE2|AVX|AVX2]
Thread count: 8 physical cores, 16 logical processors, using up to 16 threads

Non-default parameters:
TimeLimit  10
MIPFocus  1

Optimize a model with 6210 rows, 41526 columns and 8694 nonzeros
Model fingerprint: 0xb5ef9903
Model has 40446 simple general constraints
  5778 OR, 34668 INDICATOR
Variable types: 324 continuous, 41202 integer (41202 binary)
Coefficient statistics:
  Matrix range     [1e+00, 1e+02]
  Objective range  [8e+01, 2e+02]
  Bounds range     [1e+00, 3e+02]
  RHS range        [1e+00, 3e+02]
  GenCon coe range [1e+00, 1e+02]
Presolve added 34668 rows and 0 columns
Presolve removed 0 rows and 5790 columns
Presolve time: 1.51s
Presolved: 40878 rows, 35736 columns, 356607 nonzeros
Variable types: 324 continuous, 35412 integer (35412 binary)
Found heuristic solution: objective 16258.000000
Found heuristic solution: objective 16173.000000
Performing another presolve...
Presolve time: 0.54s
Deterministic concurrent LP optimizer: primal and dual simplex
Showing primal log only...


Root simplex log...

Iteration    Objective       Primal Inf.    Dual Inf.      Time
   17152    2.3722617e+03   0.000000e+00   7.289397e+03      5s
Concurrent spin time: 0.00s

Solved with dual simplex

Root simplex log...

Iteration    Objective       Primal Inf.    Dual Inf.      Time
   41657    0.0000000e+00   0.000000e+00   0.000000e+00      6s

Root relaxation: objective 0.000000e+00, 41657 iterations, 3.25 seconds (1.82 work units)
Total elapsed time = 5.69s (DegenMoves)

    Nodes    |    Current Node    |     Objective Bounds      |     Work
 Expl Unexpl |  Obj  Depth IntInf | Incumbent    BestBd   Gap | It/Node Time

     0     0    0.00000    0  811 16173.0000    0.00000   100%     -    6s
H    0     0                    13314.000000    0.00000   100%     -    7s
H    0     0                    11829.000000    0.00000   100%     -    7s
H    0     0                    11589.000000    0.00000   100%     -    8s
H    0     0                    11459.000000    0.00000   100%     -    8s
H    0     0                    11119.000000    0.00000   100%     -    8s
H    0     0                    10920.000000    0.00000   100%     -    8s
H    0     0                    10861.000000    0.00000   100%     -    8s
H    0     0                    10757.000000    0.00000   100%     -    8s
H    0     0                    10672.000000    0.00000   100%     -    8s
H    0     0                    10637.000000    0.00000   100%     -    8s
H    0     0                    10581.000000    0.00000   100%     -    8s
H    0     0                    10579.000000    0.00000   100%     -    8s
H    0     0                    10440.000000    0.00000   100%     -    8s
H    0     0                    10344.000000    0.00000   100%     -    8s
H    0     0                    10320.000000    0.00000   100%     -    8s
     0     0    0.00000    0 2236 10320.0000    0.00000   100%     -    9s
H    0     0                    10192.000000    0.00000   100%     -    9s
H    0     0                    10153.000000    0.00000   100%     -    9s
     0     0    0.00000    0 1967 10153.0000    0.00000   100%     -    9s

Cutting planes:
  Learned: 2
  Gomory: 15
  Cover: 246
  Implied bound: 51
  MIR: 2359
  StrongCG: 5
  GUB cover: 413
  RLT: 13
  Relax-and-lift: 7

Explored 1 nodes (60151 simplex iterations) in 10.06 seconds (7.34 work units)
Thread count was 16 (of 16 available processors)

Solution count 10: 10153 10192 10320 ... 10757

Time limit reached
Best objective 1.015300000000e+04, best bound 0.000000000000e+00, gap 100.0000%

Gurobi 12.0.0 (linux64) logging started Sun Dec  8 01:25:24 2024

Set parameter LogFile to value "log/st2.log"
Set parameter MIPFocus to value 1
Set parameter TimeLimit to value 10
Gurobi Optimizer version 12.0.0 build v12.0.0rc1 (linux64 - "Ubuntu 20.04.6 LTS")

CPU model: AMD Ryzen 7 5700U with Radeon Graphics, instruction set [SSE2|AVX|AVX2]
Thread count: 8 physical cores, 16 logical processors, using up to 16 threads

Non-default parameters:
TimeLimit  10
MIPFocus  1

Optimize a model with 6210 rows, 41526 columns and 8694 nonzeros
Model fingerprint: 0xaddf9f9d
Model has 40446 simple general constraints
  5778 OR, 34668 INDICATOR
Variable types: 324 continuous, 41202 integer (41202 binary)
Coefficient statistics:
  Matrix range     [1e+00, 1e+02]
  Objective range  [8e+01, 2e+02]
  Bounds range     [1e+00, 3e+02]
  RHS range        [1e+00, 3e+02]
  GenCon coe range [1e+00, 1e+02]
Presolve added 34668 rows and 0 columns
Presolve removed 0 rows and 5793 columns
Presolve time: 1.51s
Presolved: 40878 rows, 35733 columns, 355632 nonzeros
Variable types: 324 continuous, 35409 integer (35409 binary)
Found heuristic solution: objective 16241.000000
Found heuristic solution: objective 16156.000000
Performing another presolve...
Presolve time: 0.55s
Deterministic concurrent LP optimizer: primal and dual simplex
Showing primal log only...


Root simplex log...

Iteration    Objective       Primal Inf.    Dual Inf.      Time
   23589    4.0655799e+03   0.000000e+00   1.248848e+04      5s
Concurrent spin time: 0.00s

Solved with dual simplex

Root simplex log...

Iteration    Objective       Primal Inf.    Dual Inf.      Time
   42056    0.0000000e+00   0.000000e+00   0.000000e+00      6s

Root relaxation: objective 0.000000e+00, 42056 iterations, 3.11 seconds (1.93 work units)
Total elapsed time = 5.57s (DegenMoves)

    Nodes    |    Current Node    |     Objective Bounds      |     Work
 Expl Unexpl |  Obj  Depth IntInf | Incumbent    BestBd   Gap | It/Node Time

     0     0    0.00000    0  785 16156.0000    0.00000   100%     -    7s
H    0     0                    16150.000000    0.00000   100%     -    7s
H    0     0                    13763.000000    0.00000   100%     -    7s
H    0     0                    11625.000000    0.00000   100%     -    7s
H    0     0                    11407.000000    0.00000   100%     -    7s
H    0     0                    11373.000000    0.00000   100%     -    7s
H    0     0                    11275.000000    0.00000   100%     -    8s
H    0     0                    11270.000000    0.00000   100%     -    8s
H    0     0                    11100.000000    0.00000   100%     -    8s
H    0     0                    10803.000000    0.00000   100%     -    8s
H    0     0                    10633.000000    0.00000   100%     -    8s
     0     0    0.00000    0 1696 10633.0000    0.00000   100%     -    9s
H    0     0                    10522.000000    0.00000   100%     -    9s
     0     0    0.00000    0 1436 10522.0000    0.00000   100%     -    9s

Cutting planes:
  Learned: 3
  Gomory: 30
  Cover: 286
  Implied bound: 32
  MIR: 1928
  StrongCG: 7
  GUB cover: 408
  RLT: 13
  Relax-and-lift: 16

Explored 1 nodes (61132 simplex iterations) in 10.11 seconds (8.27 work units)
Thread count was 16 (of 16 available processors)

Solution count 10: 10522 10633 10803 ... 13763

Time limit reached
Best objective 1.052200000000e+04, best bound 0.000000000000e+00, gap 100.0000%

Gurobi 12.0.0 (linux64) logging started Sun Dec  8 01:28:28 2024

Set parameter LogFile to value "log/st2.log"
Set parameter MIPFocus to value 1
Set parameter TimeLimit to value 30
Gurobi Optimizer version 12.0.0 build v12.0.0rc1 (linux64 - "Ubuntu 20.04.6 LTS")

CPU model: AMD Ryzen 7 5700U with Radeon Graphics, instruction set [SSE2|AVX|AVX2]
Thread count: 8 physical cores, 16 logical processors, using up to 16 threads

Non-default parameters:
TimeLimit  30
MIPFocus  1

Optimize a model with 5350 rows, 35650 columns and 7650 nonzeros
Model fingerprint: 0x7d68a6be
Model has 34650 simple general constraints
  4950 OR, 29700 INDICATOR
Variable types: 300 continuous, 35350 integer (35350 binary)
Coefficient statistics:
  Matrix range     [1e+00, 1e+02]
  Objective range  [9e+01, 2e+02]
  Bounds range     [1e+00, 3e+02]
  RHS range        [1e+00, 3e+02]
  GenCon coe range [1e+00, 1e+02]
Presolve added 29700 rows and 0 columns
Presolve removed 0 rows and 4962 columns
Presolve time: 1.24s
Presolved: 35050 rows, 30688 columns, 305391 nonzeros
Variable types: 300 continuous, 30388 integer (30388 binary)
Found heuristic solution: objective 14964.000000
Found heuristic solution: objective 14880.000000
Performing another presolve...
Presolve time: 0.53s
Deterministic concurrent LP optimizer: primal and dual simplex
Showing primal log only...

Concurrent spin time: 0.00s

Solved with dual simplex

Root relaxation: objective 0.000000e+00, 35450 iterations, 2.30 seconds (1.43 work units)
Total elapsed time = 5.13s (DegenMoves)

    Nodes    |    Current Node    |     Objective Bounds      |     Work
 Expl Unexpl |  Obj  Depth IntInf | Incumbent    BestBd   Gap | It/Node Time

     0     0    0.00000    0  698 14880.0000    0.00000   100%     -    5s
H    0     0                    14874.000000    0.00000   100%     -    5s
H    0     0                    12280.000000    0.00000   100%     -    5s
H    0     0                    10275.000000    0.00000   100%     -    5s
H    0     0                    10142.000000    0.00000   100%     -    5s
H    0     0                    10027.000000    0.00000   100%     -    6s
H    0     0                    9907.0000000    0.00000   100%     -    6s
H    0     0                    9738.0000000    0.00000   100%     -    6s
H    0     0                    9607.0000000    0.00000   100%     -    6s
H    0     0                    9504.0000000    0.00000   100%     -    6s
H    0     0                    9164.0000000    0.00000   100%     -    6s
H    0     0                    9054.0000000    0.00000   100%     -    6s
H    0     0                    8884.0000000    0.00000   100%     -    6s
     0     0    0.00000    0 1451 8884.00000    0.00000   100%     -    6s
H    0     0                    8748.0000000    0.00000   100%     -    7s
     0     0    0.00000    0 1672 8748.00000    0.00000   100%     -    7s
H    0     0                    8578.0000000    0.00000   100%     -   13s
H    0     0                    8561.0000000    0.00000   100%     -   13s
H    0     0                    8428.0000000    0.00000   100%     -   13s
H    0     0                    8341.0000000    0.00000   100%     -   13s
H    0     0                    8171.0000000    0.00000   100%     -   13s
H    0     0                    8035.0000000    0.00000   100%     -   13s
H    0     0                    8032.0000000    0.00000   100%     -   13s
     0     0    0.00000    0  771 8032.00000    0.00000   100%     -   13s
H    0     0                    7862.0000000    0.00000   100%     -   13s
     0     0    0.00000    0  724 7862.00000    0.00000   100%     -   14s
     0     0    0.00000    0  603 7862.00000    0.00000   100%     -   16s
     0     0    0.00000    0  596 7862.00000    0.00000   100%     -   16s
H    0     0                    7775.0000000    0.00000   100%     -   19s
     0     0    0.00000    0  625 7775.00000    0.00000   100%     -   19s
     0     0    0.00000    0  634 7775.00000    0.00000   100%     -   19s
     0     0    0.00000    0  647 7775.00000    0.00000   100%     -   21s
     0     2    0.00000    0  617 7775.00000    0.00000   100%     -   23s
    23    64    0.00000    5  777 7775.00000    0.00000   100%   295   25s
   143   176    0.00000   20  764 7775.00000    0.00000   100%  66.7   30s
H  158   176                    7605.0000000    0.00000   100%  61.5   30s

Cutting planes:
  Learned: 2
  Implied bound: 8
  MIR: 59
  GUB cover: 14
  RLT: 3
  Relax-and-lift: 3

Explored 175 nodes (123185 simplex iterations) in 30.02 seconds (21.45 work units)
Thread count was 16 (of 16 available processors)

Solution count 10: 7605 7775 7862 ... 8578

Time limit reached
Best objective 7.605000000000e+03, best bound 0.000000000000e+00, gap 100.0000%
